Route 1: 0 88 44 65 3 34 13 0
Route 2: 0 97 29 68 51 41 58 9 0
Route 3: 0 30 23 84 95 50 6 1 28 54 76 0
Route 4: 0 40 79 36 71 99 57 0
Route 5: 0 63 96 81 77 66 100 0
Route 6: 0 69 33 64 11 75 87 0
Route 7: 0 5 37 39 46 45 27 86 94 48 0
Route 8: 0 25 89 56 16 18 55 83 80 92 14 24 59 0
Route 9: 0 21 15 42 31 17 7 0
Route 10: 0 72 90 67 91 49 19 2 73 98 26 35 0
Route 11: 0 93 43 62 82 4 60 61 10 78 85 0
Route 12: 0 12 70 8 47 22 52 53 20 0
Route 13: 0 74 32 38 0
